Geographic Exponential Decay
20 28 4 302 295 266 153 255 120 92 86 143 73 56 281 106 108 250 202 188 248
p edge 320 632
e 0 174 3.0
e 0 309 3.0
e 0 310 5.0
e 1 53 1.0
e 2 141 2.0
e 2 158 6.0
e 3 273 1.0
e 4 177 11.0
e 4 156 53.0
e 4 248 29.0
e 4 164 64.0
e 4 284 37.0
e 4 277 73.0
e 4 240 86.0
e 4 37 59.0
e 4 183 68.0
e 4 43 46.0
e 4 305 74.0
e 4 149 87.0
e 4 178 67.0
e 4 293 80.0
e 4 30 73.0
e 4 66 46.0
e 4 212 30.0
e 5 129 3.0
e 6 212 3.0
e 7 144 4.0
e 8 68 1.0
e 9 226 1.0
e 9 17 5.0
e 10 153 97.0
e 10 197 7.0
e 11 6 1.0
e 12 132 11.0
e 13 123 5.0
e 14 77 25.0
e 15 10 1.0
e 16 33 13.0
e 16 122 1.0
e 17 204 4.0
e 18 261 1.0
e 19 206 6.0
e 20 252 2.0
e 20 200 2.0
e 20 225 4.0
e 21 57 6.0
e 21 314 9.0
e 21 131 1.0
e 22 216 2.0
e 23 295 40.0
e 24 141 1.0
e 25 314 1.0
e 26 102 3.0
e 27 128 2.0
e 28 124 89.0
e 28 73 76.0
e 28 246 60.0
e 28 16 80.0
e 28 201 94.0
e 28 223 91.0
e 28 188 29.0
e 28 183 91.0
e 28 14 8.0
e 28 53 40.0
e 28 145 77.0
e 28 165 56.0
e 28 140 12.0
e 28 189 55.0
e 28 275 51.0
e 28 127 8.0
e 28 193 44.0
e 29 33 26.0
e 29 60 3.0
e 29 228 6.0
e 29 135 17.0
e 29 157 17.0
e 30 142 5.0
e 30 305 8.0
e 30 272 6.0
e 30 110 2.0
e 31 207 1.0
e 31 305 1.0
e 31 301 14.0
e 32 60 1.0
e 33 178 16.0
e 33 148 2.0
e 33 69 23.0
e 33 88 33.0
e 33 114 41.0
e 33 202 28.0
e 33 236 49.0
e 34 288 1.0
e 34 195 1.0
e 35 244 1.0
e 35 63 3.0
e 35 128 6.0
e 36 214 1.0
e 37 81 13.0
e 37 13 5.0
e 37 215 2.0
e 37 98 18.0
e 37 117 49.0
e 37 219 47.0
e 37 52 44.0
e 37 195 18.0
e 38 119 1.0
e 38 257 5.0
e 39 68 1.0
e 39 128 5.0
e 40 79 1.0
e 41 58 5.0
e 42 175 1.0
e 43 130 2.0
e 44 275 1.0
e 45 51 4.0
e 46 167 1.0
e 47 250 9.0
e 47 291 5.0
e 48 271 1.0
e 49 212 4.0
e 49 302 11.0
e 50 66 10.0
e 50 33 38.0
e 51 66 2.0
e 51 296 7.0
e 52 89 1.0
e 54 239 1.0
e 55 198 1.0
e 56 36 55.0
e 56 193 16.0
e 56 153 43.0
e 56 278 100.0
e 56 40 21.0
e 56 88 7.0
e 56 129 27.0
e 56 8 55.0
e 56 197 74.0
e 56 262 29.0
e 56 277 87.0
e 56 9 63.0
e 56 228 78.0
e 56 198 86.0
e 56 274 22.0
e 56 107 35.0
e 56 1 88.0
e 57 288 1.0
e 58 42 1.0
e 59 54 4.0
e 59 27 2.0
e 61 292 2.0
e 62 271 1.0
e 63 249 1.0
e 64 2 2.0
e 65 179 2.0
e 67 296 1.0
e 70 55 2.0
e 71 272 4.0
e 71 114 5.0
e 71 132 7.0
e 72 204 4.0
e 72 83 5.0
e 73 190 53.0
e 73 60 4.0
e 73 74 16.0
e 73 154 62.0
e 73 191 90.0
e 73 49 25.0
e 73 315 71.0
e 73 203 90.0
e 73 22 67.0
e 73 93 19.0
e 73 128 59.0
e 73 69 5.0
e 73 272 33.0
e 73 255 13.0
e 73 169 31.0
e 73 33 94.0
e 74 23 3.0
e 74 75 1.0
e 75 196 5.0
e 75 90 5.0
e 76 194 1.0
e 77 226 22.0
e 77 178 3.0
e 77 40 19.0
e 77 6 8.0
e 78 205 2.0
e 78 249 3.0
e 79 110 4.0
e 80 31 8.0
e 82 100 1.0
e 83 68 5.0
e 83 182 2.0
e 84 248 37.0
e 85 256 2.0
e 86 0 14.0
e 86 101 53.0
e 86 287 82.0
e 86 127 12.0
e 86 115 16.0
e 86 226 40.0
e 86 315 86.0
e 86 138 76.0
e 86 24 4.0
e 86 317 35.0
e 86 184 19.0
e 86 243 55.0
e 86 70 58.0
e 86 231 20.0
e 86 238 51.0
e 86 75 19.0
e 86 56 58.0
e 87 181 2.0
e 87 221 5.0
e 88 26 1.0
e 90 50 8.0
e 90 136 1.0
e 91 3 3.0
e 91 170 1.0
e 92 199 5.0
e 92 43 100.0
e 92 48 41.0
e 92 2 77.0
e 92 17 63.0
e 92 154 26.0
e 92 208 35.0
e 92 300 57.0
e 92 127 77.0
e 92 229 16.0
e 92 52 15.0
e 92 64 59.0
e 92 158 56.0
e 92 3 52.0
e 92 210 6.0
e 92 166 27.0
e 92 105 72.0
e 94 179 2.0
e 95 15 1.0
e 96 111 5.0
e 97 206 9.0
e 97 199 11.0
e 99 70 2.0
e 102 11 2.0
e 103 207 1.0
e 104 264 10.0
e 104 255 64.0
e 104 215 10.0
e 104 242 20.0
e 104 125 18.0
e 106 35 89.0
e 106 85 62.0
e 106 269 66.0
e 106 224 10.0
e 106 156 85.0
e 106 284 46.0
e 106 291 7.0
e 106 94 93.0
e 106 198 89.0
e 106 7 55.0
e 106 50 22.0
e 106 97 35.0
e 106 127 6.0
e 106 69 36.0
e 106 1 79.0
e 106 136 64.0
e 106 32 46.0
e 108 180 38.0
e 108 198 56.0
e 108 126 10.0
e 108 36 74.0
e 108 109 21.0
e 108 157 59.0
e 108 255 91.0
e 108 305 49.0
e 108 181 10.0
e 108 202 100.0
e 108 269 31.0
e 108 95 67.0
e 108 162 60.0
e 108 222 91.0
e 108 79 22.0
e 108 256 28.0
e 108 11 60.0
e 110 249 8.0
e 110 279 14.0
e 110 182 24.0
e 111 280 6.0
e 112 205 2.0
e 113 135 7.0
e 113 269 1.0
e 115 150 3.0
e 116 186 12.0
e 116 13 8.0
e 116 118 8.0
e 117 19 1.0
e 120 129 18.0
e 120 85 99.0
e 120 102 2.0
e 120 279 52.0
e 120 28 56.0
e 120 239 81.0
e 120 91 26.0
e 120 135 27.0
e 120 104 22.0
e 120 304 64.0
e 120 22 79.0
e 120 260 13.0
e 120 232 65.0
e 120 158 98.0
e 120 280 68.0
e 120 157 96.0
e 120 227 67.0
e 121 47 2.0
e 122 124 4.0
e 123 59 2.0
e 126 311 24.0
e 126 188 54.0
e 126 75 3.0
e 126 230 1.0
e 126 226 27.0
e 126 58 42.0
e 126 292 41.0
e 126 286 15.0
e 132 247 3.0
e 133 310 2.0
e 134 291 3.0
e 135 58 9.0
e 135 201 13.0
e 137 94 2.0
e 137 129 1.0
e 138 199 7.0
e 138 150 5.0
e 138 46 10.0
e 138 215 21.0
e 139 106 49.0
e 142 233 14.0
e 142 136 2.0
e 142 262 22.0
e 142 311 8.0
e 143 103 17.0
e 143 59 32.0
e 143 194 23.0
e 143 134 50.0
e 143 74 46.0
e 143 183 9.0
e 143 77 36.0
e 143 67 55.0
e 143 69 89.0
e 143 93 74.0
e 143 6 8.0
e 143 311 91.0
e 143 289 4.0
e 143 316 28.0
e 143 283 88.0
e 143 25 19.0
e 143 11 53.0
e 144 133 3.0
e 146 234 1.0
e 146 0 3.0
e 147 131 2.0
e 151 103 1.0
e 152 216 2.0
e 152 64 3.0
e 153 215 9.0
e 153 54 24.0
e 153 48 70.0
e 153 19 34.0
e 153 216 69.0
e 153 105 90.0
e 153 20 58.0
e 153 21 19.0
e 153 317 46.0
e 153 200 7.0
e 153 290 32.0
e 153 124 83.0
e 153 60 7.0
e 153 12 86.0
e 153 154 69.0
e 155 291 2.0
e 159 273 1.0
e 160 213 2.0
e 160 146 1.0
e 161 157 1.0
e 161 68 1.0
e 163 93 2.0
e 164 73 43.0
e 167 24 1.0
e 168 218 9.0
e 168 58 1.0
e 170 233 8.0
e 170 246 6.0
e 170 150 21.0
e 170 124 19.0
e 171 80 8.0
e 171 256 10.0
e 171 50 8.0
e 172 260 8.0
e 172 231 1.0
e 172 162 4.0
e 173 47 6.0
e 173 54 3.0
e 176 32 1.0
e 184 191 7.0
e 184 210 10.0
e 185 205 1.0
e 187 94 2.0
e 188 287 70.0
e 188 293 66.0
e 188 161 95.0
e 188 1 22.0
e 188 245 60.0
e 188 181 78.0
e 188 89 65.0
e 188 87 63.0
e 188 102 8.0
e 188 99 50.0
e 188 298 71.0
e 188 5 57.0
e 188 190 7.0
e 188 168 22.0
e 188 53 28.0
e 190 229 6.0
e 192 235 2.0
e 192 270 5.0
e 192 92 46.0
e 196 294 3.0
e 197 141 6.0
e 202 210 79.0
e 202 185 8.0
e 202 155 12.0
e 202 274 77.0
e 202 177 60.0
e 202 199 48.0
e 202 191 71.0
e 202 196 30.0
e 202 267 13.0
e 202 209 81.0
e 202 197 61.0
e 202 192 76.0
e 202 225 35.0
e 202 52 95.0
e 202 88 34.0
e 203 236 5.0
e 206 195 11.0
e 211 95 4.0
e 211 212 3.0
e 216 275 4.0
e 216 164 12.0
e 217 26 1.0
e 218 259 11.0
e 218 191 1.0
e 218 164 1.0
e 218 19 16.0
e 220 61 1.0
e 224 163 1.0
e 227 51 1.0
e 227 139 3.0
e 227 305 6.0
e 227 131 24.0
e 231 61 20.0
e 231 139 11.0
e 231 7 23.0
e 237 281 13.0
e 240 141 4.0
e 241 189 2.0
e 243 154 1.0
e 245 210 5.0
e 245 189 5.0
e 248 9 64.0
e 248 103 84.0
e 248 264 58.0
e 248 187 82.0
e 248 236 82.0
e 248 129 32.0
e 248 179 8.0
e 248 205 27.0
e 248 112 79.0
e 248 105 41.0
e 248 272 84.0
e 248 120 50.0
e 248 83 69.0
e 248 180 9.0
e 248 237 23.0
e 250 142 57.0
e 250 35 73.0
e 250 33 37.0
e 250 126 88.0
e 250 253 26.0
e 250 78 60.0
e 250 315 1.0
e 250 57 78.0
e 250 34 8.0
e 250 303 64.0
e 250 209 65.0
e 250 197 64.0
e 250 251 22.0
e 250 150 54.0
e 250 195 39.0
e 250 208 10.0
e 251 306 4.0
e 251 119 21.0
e 251 182 10.0
e 251 102 10.0
e 254 92 71.0
e 254 190 4.0
e 255 212 80.0
e 255 243 68.0
e 255 300 6.0
e 255 92 72.0
e 255 72 72.0
e 255 151 89.0
e 255 21 40.0
e 255 182 41.0
e 255 70 66.0
e 255 167 58.0
e 255 152 87.0
e 255 153 33.0
e 255 219 54.0
e 255 12 72.0
e 258 155 1.0
e 259 216 24.0
e 263 312 8.0
e 265 38 3.0
e 266 229 53.0
e 266 97 14.0
e 266 262 2.0
e 266 288 95.0
e 266 302 75.0
e 266 78 50.0
e 266 39 31.0
e 266 238 93.0
e 266 99 63.0
e 266 47 3.0
e 266 199 57.0
e 266 37 72.0
e 266 171 94.0
e 266 292 41.0
e 266 316 34.0
e 266 318 33.0
e 266 295 71.0
e 268 144 3.0
e 274 14 4.0
e 274 268 1.0
e 274 63 11.0
e 276 37 38.0
e 276 75 7.0
e 276 286 5.0
e 278 38 3.0
e 281 130 49.0
e 281 168 27.0
e 281 242 5.0
e 281 167 16.0
e 281 235 61.0
e 281 133 48.0
e 281 83 84.0
e 281 39 18.0
e 281 25 94.0
e 281 165 40.0
e 281 220 69.0
e 281 108 94.0
e 281 20 5.0
e 281 227 90.0
e 281 53 91.0
e 281 89 49.0
e 282 176 1.0
e 283 204 31.0
e 283 88 1.0
e 283 53 8.0
e 283 238 36.0
e 283 130 11.0
e 283 87 16.0
e 283 46 24.0
e 283 295 71.0
e 284 189 8.0
e 284 202 40.0
e 284 71 14.0
e 285 42 2.0
e 287 85 36.0
e 287 32 24.0
e 287 87 40.0
e 287 126 4.0
e 287 138 46.0
e 287 59 48.0
e 287 232 1.0
e 294 135 17.0
e 295 88 1.0
e 295 112 12.0
e 295 113 16.0
e 295 151 48.0
e 295 63 64.0
e 295 24 76.0
e 295 183 56.0
e 295 244 75.0
e 295 193 74.0
e 295 158 20.0
e 295 313 83.0
e 295 222 63.0
e 295 56 77.0
e 295 64 84.0
e 297 30 11.0
e 299 18 2.0
e 301 231 18.0
e 301 217 18.0
e 301 96 5.0
e 301 45 18.0
e 302 39 8.0
e 302 5 12.0
e 302 223 84.0
e 302 122 52.0
e 302 117 99.0
e 302 176 66.0
e 302 308 1.0
e 302 124 64.0
e 302 260 47.0
e 302 82 70.0
e 302 34 51.0
e 302 251 19.0
e 302 145 100.0
e 302 48 100.0
e 302 261 1.0
e 303 118 3.0
e 306 71 3.0
e 307 300 3.0
e 308 247 1.0
e 309 172 1.0
e 312 109 6.0
e 312 190 2.0
e 313 61 1.0
e 314 121 8.0
e 314 271 5.0
e 314 176 16.0
e 319 9 6.0
